NAME : OMNETRUN
COMMENT : 524.61
TYPE : CVRP
DIMENSION : 21
EDGE_WEIGHT_TYPE : EUC_2D
CAPACITY : 21
NODE_COORD_SECTION
1 0.107093 -0.77924
2 231.698 -3691.73
3 126.937 -4886.66
4 408.234 -865.051
5 277.671 -1356.79
6 271.849 -1934.83
7 393.512 -3223.36
8 339.978 -5378.49
9 512.805 -452.817
10 525.796 -1654.12
11 646.51 -2471.32
12 550.799 -4129.78
13 714.727 -4583.94
14 929.747 -555.977
15 933.207 -1254.69
16 859.496 -1922.67
17 936.554 -2266.77
18 971.479 -2674.84
19 974.762 -3585.02
20 912.2 -4166.7
21 782.186 -5641.51
DEMAND_SECTION
1 0
2 1
3 1
4 1
5 1
6 1
7 1
8 1
9 1
10 1
11 1
12 1
13 1
14 1
15 1
16 1
17 1
18 1
19 1
20 1
21 1
DEPOT_SECTION
1
-1
EOF
